N = 7;
H = 6;
T = 2;

avail = array3d(1..N, 1..H, 1..T, [1, 7, 10, 2, 2, 6, 1, 5, 9, 9, 4, 4, 4, 6, 0, 7, 4, 0, 6, 4, 5, 5, 1, 1, 8, 7, 10, 5, 3, 4, 2, 4, 1, 2, 2, 5, 10, 1, 7, 9, 5, 10, 8, 5, 4, 9, 10, 6, 5, 3, 3, 2, 1, 9, 7, 10, 6, 3, 4, 5, 0, 4, 3, 10, 10, 8, 1, 6, 6, 4, 6, 0, 10, 0, 2, 5, 3, 5, 8, 0, 2, 0, 3, 1]);

r = array2d(1..H, 1..T, [3, 1, 4, 3, 2, 2, 2, 1, 1, 1, 1, 1]);
